unknown
(model
; cardinality of BoundSet is 2
(declare-sort BoundSet 0)
; rep: @uc_BoundSet_0
; rep: @uc_BoundSet_1
(declare-sort UnboundSet 0)
(define-fun IsSnow ((BOUND_VARIABLE_419 BoundSet)) Bool true)
(define-fun IsPlayed ((BOUND_VARIABLE_419 BoundSet)) Bool true)
(define-fun IsSnowSport ((BOUND_VARIABLE_419 BoundSet)) Bool false)
)
sat
(model
; cardinality of BoundSet is 1
(declare-sort BoundSet 0)
; rep: @uc_BoundSet_0
(declare-sort UnboundSet 0)
(define-fun IsSnow ((BOUND_VARIABLE_428 BoundSet)) Bool true)
(define-fun IsPlayed ((BOUND_VARIABLE_428 BoundSet)) Bool true)
(define-fun IsSnowSport ((BOUND_VARIABLE_428 BoundSet)) Bool false)
)
